
<<< setup


<<< generate

CPXPARAM_TimeLimit                               2
Tried aggregator 2 times.
MIP Presolve eliminated 9 rows and 9 columns.
Aggregator did 10 substitutions.
Reduced MIP has 111 rows, 181 columns, and 614 nonzeros.
Reduced MIP has 90 binaries, 91 generals, 0 SOSs, and 0 indicators.
Presolve time = 0,00 sec. (0,61 ticks)
Found incumbent of value 75,804765 after 0,00 sec. (1,23 ticks)
Probing fixed 7 vars, tightened 0 bounds.
Probing time = 0,00 sec. (0,36 ticks)
Cover probing fixed 0 vars, tightened 63 bounds.
Tried aggregator 1 time.
MIP Presolve eliminated 10 rows and 16 columns.
MIP Presolve modified 112 coefficients.
Reduced MIP has 101 rows, 165 columns, and 565 nonzeros.
Reduced MIP has 83 binaries, 82 generals, 0 SOSs, and 0 indicators.
Presolve time = 0,00 sec. (0,67 ticks)
Probing time = 0,00 sec. (0,30 ticks)
Clique table members: 19.
MIP emphasis: balance optimality and feasibility.
MIP search method: dynamic search.
Parallel mode: deterministic, using up to 4 threads.
Root relaxation solution time = 0,00 sec. (0,44 ticks)

        Nodes                                         Cuts/
   Node  Left     Objective  IInf  Best Integer    Best Bound    ItCnt     Gap

*     0+    0                           75,8048        0,0000           100,00%
      0     0       21,7186    26       75,8048       21,7186       68   71,35%
      0     0       23,1570    39       75,8048      Cuts: 39       94   69,45%
      0     0       28,4495    36       75,8048      Cuts: 44      137   62,47%
      0     0       28,6180    42       75,8048      Cuts: 16      154   62,25%
      0     0       29,3435    44       75,8048      Cuts: 18      183   61,29%
      0     0       29,4678    45       75,8048       Cuts: 9      202   61,13%
      0     0       29,4917    48       75,8048       Cuts: 8      210   61,10%
      0     0       29,5319    49       75,8048      Cuts: 17      221   61,04%
      0     0       29,5975    52       75,8048       Cuts: 9      240   60,96%
      0     0       30,0314    43       75,8048      Cuts: 14      262   60,38%
      0     0       30,1345    46       75,8048      Cuts: 12      283   60,25%
      0     0       30,2552    54       75,8048      Cuts: 11      298   60,09%
      0     0       30,3630    52       75,8048      Cuts: 16      313   59,95%
      0     0       30,5087    49       75,8048      Cuts: 11      333   59,75%
      0     0       30,6303    45       75,8048       Cuts: 7      353   59,59%
      0     0       30,6869    40       75,8048      Cuts: 11      373   59,52%
      0     0       30,7922    48       75,8048      Cuts: 10      407   59,38%
      0     0       30,7963    49       75,8048      Cuts: 13      430   59,37%
      0     0       30,7990    50       75,8048       Cuts: 5      443   59,37%
*     0+    0                           31,5235       30,7990             2,30%
      0     0        cutoff             31,5235       31,5235      443    0,00%
Elapsed time = 0,20 sec. (88,47 ticks, tree = 0,01 MB, solutions = 2)

Cover cuts applied:  5
Implied bound cuts applied:  9
Flow cuts applied:  15
Mixed integer rounding cuts applied:  3
Zero-half cuts applied:  11
Lift and project cuts applied:  1
Gomory fractional cuts applied:  2

Root node processing (before b&c):
  Real time             =    0,20 sec. (88,48 ticks)
Parallel b&c, 4 threads:
  Real time             =    0,00 sec. (0,00 ticks)
  Sync time (average)   =    0,00 sec.
  Wait time (average)   =    0,00 sec.
                          ------------
Total (root+branch&cut) =    0,20 sec. (88,48 ticks)

<<< solve


OBJECTIVE: 31.52349
12/18/2018 23:52:21 913
solving time ~= 198.744140625
Done
 [[0 0 0 0 5 0 0 0 0 0]
         [6 0 0 0 0 0 0 0 0 0]
         [0 7 0 0 0 0 0 0 0 0]
         [0 0 8 0 0 0 0 0 0 0]
         [0 0 0 0 0 4 0 0 0 0]
         [0 0 0 0 0 0 3 0 0 0]
         [0 0 0 0 0 0 0 0 2 0]
         [0 0 0 9 0 0 0 0 0 0]
         [0 0 0 0 0 0 0 0 0 1]
         [0 0 0 0 0 0 0 10 0 0]]

<<< post process


<<< done

